(set-info :smt-lib-version 2.6)
(set-info :category "crafted")
(set-logic QF_FFA)
(define-sort FF0 () (_ FiniteField 52435875175126190479447740508185965837690552500527637822603658699938581184513))
(declare-fun x19 () Bool)
(declare-fun x18 () Bool)
(declare-fun x17 () Bool)
(declare-fun x16 () Bool)
(declare-fun x15 () Bool)
(declare-fun x14 () Bool)
(declare-fun x13 () Bool)
(declare-fun x12 () Bool)
(declare-fun x11 () Bool)
(declare-fun x10 () Bool)
(declare-fun x9 () Bool)
(declare-fun x8 () Bool)
(declare-fun x7 () Bool)
(declare-fun x6 () Bool)
(declare-fun x5 () Bool)
(declare-fun x4 () Bool)
(declare-fun x3 () Bool)
(declare-fun x2 () Bool)
(declare-fun x1 () Bool)
(declare-fun x0 () Bool)
(declare-fun return_n18 () FF0)
(declare-fun mul_n38 () FF0)
(declare-fun x18_n20 () FF0)
(declare-fun mul_n37 () FF0)
(declare-fun x17_n11 () FF0)
(declare-fun mul_n36 () FF0)
(declare-fun x16_n3 () FF0)
(declare-fun mul_n35 () FF0)
(declare-fun x15_n15 () FF0)
(declare-fun mul_n34 () FF0)
(declare-fun x14_n6 () FF0)
(declare-fun mul_n33 () FF0)
(declare-fun x13_n8 () FF0)
(declare-fun mul_n32 () FF0)
(declare-fun x12_n0 () FF0)
(declare-fun mul_n31 () FF0)
(declare-fun x11_n12 () FF0)
(declare-fun mul_n30 () FF0)
(declare-fun x10_n4 () FF0)
(declare-fun mul_n29 () FF0)
(declare-fun x9_n9 () FF0)
(declare-fun mul_n28 () FF0)
(declare-fun x8_n1 () FF0)
(declare-fun mul_n27 () FF0)
(declare-fun x7_n14 () FF0)
(declare-fun mul_n26 () FF0)
(declare-fun x6_n17 () FF0)
(declare-fun mul_n25 () FF0)
(declare-fun x5_n10 () FF0)
(declare-fun mul_n24 () FF0)
(declare-fun x4_n2 () FF0)
(declare-fun mul_n23 () FF0)
(declare-fun x3_n7 () FF0)
(declare-fun mul_n22 () FF0)
(declare-fun x2_n19 () FF0)
(declare-fun mul_n21 () FF0)
(declare-fun x1_n13 () FF0)
(declare-fun x0_n5 () FF0)
(declare-fun x19_n16 () FF0)
(assert 
  (let ((let0 x19))
  (let ((let1 x18))
  (let ((let2 x17))
  (let ((let3 x16))
  (let ((let4 x15))
  (let ((let5 x14))
  (let ((let6 x13))
  (let ((let7 x12))
  (let ((let8 x11))
  (let ((let9 x10))
  (let ((let10 x9))
  (let ((let11 x8))
  (let ((let12 x7))
  (let ((let13 x6))
  (let ((let14 x5))
  (let ((let15 x4))
  (let ((let16 x3))
  (let ((let17 x2))
  (let ((let18 x1))
  (let ((let19 x0))
  (let ((let20 (or let19 let18 let17 let16 let15 let14 let13 let12 let11 let10 let9 let8 let7 let6 let5 let4 let3 let2 let1 let0)))
  (let ((let21 return_n18))
  (let ((let22 (as ff1 FF0)))
  (let ((let23 (= let22 let21)))
  (let ((let24 (= let23 let20)))
  (let ((let25 (as ff0 FF0)))
  (let ((let26 (= let25 let21)))
  (let ((let27 (or let23 let26)))
  (let ((let28 (and let27 let24)))
  (let ((let29 mul_n38))
  (let ((let30 (as ff52435875175126190479447740508185965837690552500527637822603658699938581184512 FF0)))
  (let ((let31 x18_n20))
  (let ((let32 (ff.mul let31 let30)))
  (let ((let33 (ff.add let32 let22)))
  (let ((let34 mul_n37))
  (let ((let35 (ff.mul let34 let33)))
  (let ((let36 (= let35 let29)))
  (let ((let37 x17_n11))
  (let ((let38 (ff.mul let37 let30)))
  (let ((let39 (ff.add let38 let22)))
  (let ((let40 mul_n36))
  (let ((let41 (ff.mul let40 let39)))
  (let ((let42 (= let41 let34)))
  (let ((let43 x16_n3))
  (let ((let44 (ff.mul let43 let30)))
  (let ((let45 (ff.add let44 let22)))
  (let ((let46 mul_n35))
  (let ((let47 (ff.mul let46 let45)))
  (let ((let48 (= let47 let40)))
  (let ((let49 x15_n15))
  (let ((let50 (ff.mul let49 let30)))
  (let ((let51 (ff.add let50 let22)))
  (let ((let52 mul_n34))
  (let ((let53 (ff.mul let52 let51)))
  (let ((let54 (= let53 let46)))
  (let ((let55 x14_n6))
  (let ((let56 (ff.mul let55 let30)))
  (let ((let57 (ff.add let56 let22)))
  (let ((let58 mul_n33))
  (let ((let59 (ff.mul let58 let57)))
  (let ((let60 (= let59 let52)))
  (let ((let61 x13_n8))
  (let ((let62 (ff.mul let61 let30)))
  (let ((let63 (ff.add let62 let22)))
  (let ((let64 mul_n32))
  (let ((let65 (ff.mul let64 let63)))
  (let ((let66 (= let65 let58)))
  (let ((let67 x12_n0))
  (let ((let68 (ff.mul let67 let30)))
  (let ((let69 (ff.add let68 let22)))
  (let ((let70 mul_n31))
  (let ((let71 (ff.mul let70 let69)))
  (let ((let72 (= let71 let64)))
  (let ((let73 x11_n12))
  (let ((let74 (ff.mul let73 let30)))
  (let ((let75 (ff.add let74 let22)))
  (let ((let76 mul_n30))
  (let ((let77 (ff.mul let76 let75)))
  (let ((let78 (= let77 let70)))
  (let ((let79 x10_n4))
  (let ((let80 (ff.mul let79 let30)))
  (let ((let81 (ff.add let80 let22)))
  (let ((let82 mul_n29))
  (let ((let83 (ff.mul let82 let81)))
  (let ((let84 (= let83 let76)))
  (let ((let85 x9_n9))
  (let ((let86 (ff.mul let85 let30)))
  (let ((let87 (ff.add let86 let22)))
  (let ((let88 mul_n28))
  (let ((let89 (ff.mul let88 let87)))
  (let ((let90 (= let89 let82)))
  (let ((let91 x8_n1))
  (let ((let92 (ff.mul let91 let30)))
  (let ((let93 (ff.add let92 let22)))
  (let ((let94 mul_n27))
  (let ((let95 (ff.mul let94 let93)))
  (let ((let96 (= let95 let88)))
  (let ((let97 x7_n14))
  (let ((let98 (ff.mul let97 let30)))
  (let ((let99 (ff.add let98 let22)))
  (let ((let100 mul_n26))
  (let ((let101 (ff.mul let100 let99)))
  (let ((let102 (= let101 let94)))
  (let ((let103 x6_n17))
  (let ((let104 (ff.mul let103 let30)))
  (let ((let105 (ff.add let104 let22)))
  (let ((let106 mul_n25))
  (let ((let107 (ff.mul let106 let105)))
  (let ((let108 (= let107 let100)))
  (let ((let109 x5_n10))
  (let ((let110 (ff.mul let109 let30)))
  (let ((let111 (ff.add let110 let22)))
  (let ((let112 mul_n24))
  (let ((let113 (ff.mul let112 let111)))
  (let ((let114 (= let113 let106)))
  (let ((let115 x4_n2))
  (let ((let116 (ff.mul let115 let30)))
  (let ((let117 (ff.add let116 let22)))
  (let ((let118 mul_n23))
  (let ((let119 (ff.mul let118 let117)))
  (let ((let120 (= let119 let112)))
  (let ((let121 x3_n7))
  (let ((let122 (ff.mul let121 let30)))
  (let ((let123 (ff.add let122 let22)))
  (let ((let124 mul_n22))
  (let ((let125 (ff.mul let124 let123)))
  (let ((let126 (= let125 let118)))
  (let ((let127 x2_n19))
  (let ((let128 (ff.mul let127 let30)))
  (let ((let129 (ff.add let128 let22)))
  (let ((let130 mul_n21))
  (let ((let131 (ff.mul let130 let129)))
  (let ((let132 (= let131 let124)))
  (let ((let133 x1_n13))
  (let ((let134 (ff.mul let133 let30)))
  (let ((let135 (ff.add let134 let22)))
  (let ((let136 x0_n5))
  (let ((let137 (ff.mul let136 let30)))
  (let ((let138 (ff.add let137 let22)))
  (let ((let139 (ff.mul let138 let135)))
  (let ((let140 (= let139 let130)))
  (let ((let141 (and let140 let132 let126 let120 let114 let108 let102 let96 let90 let84 let78 let72 let66 let60 let54 let48 let42 let36)))
  (let ((let142 (ite let5 let22 let25)))
  (let ((let143 (= let55 let142)))
  (let ((let144 (ite let16 let22 let25)))
  (let ((let145 (= let121 let144)))
  (let ((let146 (ite let3 let22 let25)))
  (let ((let147 (= let43 let146)))
  (let ((let148 (ite let11 let22 let25)))
  (let ((let149 (= let91 let148)))
  (let ((let150 (ite let15 let22 let25)))
  (let ((let151 (= let115 let150)))
  (let ((let152 (ite let2 let22 let25)))
  (let ((let153 (= let37 let152)))
  (let ((let154 (ite let14 let22 let25)))
  (let ((let155 (= let109 let154)))
  (let ((let156 (ite let10 let22 let25)))
  (let ((let157 (= let85 let156)))
  (let ((let158 (ite let18 let22 let25)))
  (let ((let159 (= let133 let158)))
  (let ((let160 (ite let19 let22 let25)))
  (let ((let161 (= let136 let160)))
  (let ((let162 (ite let0 let22 let25)))
  (let ((let163 x19_n16))
  (let ((let164 (= let163 let162)))
  (let ((let165 (ite let12 let22 let25)))
  (let ((let166 (= let97 let165)))
  (let ((let167 (ite let13 let22 let25)))
  (let ((let168 (= let103 let167)))
  (let ((let169 (ite let7 let22 let25)))
  (let ((let170 (= let67 let169)))
  (let ((let171 (ite let9 let22 let25)))
  (let ((let172 (= let79 let171)))
  (let ((let173 (ite let8 let22 let25)))
  (let ((let174 (= let73 let173)))
  (let ((let175 (ite let6 let22 let25)))
  (let ((let176 (= let61 let175)))
  (let ((let177 (ite let17 let22 let25)))
  (let ((let178 (= let127 let177)))
  (let ((let179 (ite let4 let22 let25)))
  (let ((let180 (= let49 let179)))
  (let ((let181 (ite let1 let22 let25)))
  (let ((let182 (= let31 let181)))
  (let ((let183 (and let182 let180 let178 let176 let174 let172 let170 let168 let166 let164 let161 let159 let157 let155 let153 let151 let149 let147 let145 let143)))
  (let ((let184 (and let183 let141)))
  (let ((let185 (=> let184 let28)))
  (let ((let186 (not let185)))
  let186
)))))))))))))))))))))))))))))))))))))))))))))))))))))))))))))))))))))))))))))))))))))))))))))))))))))))))))))))))))))))))))))))))))))))))))))))))))))))))))))))))))))))))))))))))))))))))))
)
(check-sat)
